100
0   502   505
1   501   503
2   501   504
3   504   504
4   504   502
5   501   504
6   501   504
7   504   505
8   501   504
9   503   502
10   505   501
11   503   501
12   501   501
13   505   501
14   504   502
15   504   501
16   505   502
17   504   504
18   505   502
19   503   502
20   502   504
21   503   501
22   254   255
23   251   252
24   253   251
25   253   255
26   254   255
27   252   253
28   253   255
29   254   255
30   254   255
31   251   254
32   252   254
33   254   252
34   253   255
35   253   251
36   254   255
37   251   252
38   255   254
39   253   254
40   251   254
41   251   253
42   255   255
43   255   254
44   127   127
45   130   127
46   126   127
47   130   130
48   127   129
49   130   128
50   130   128
51   129   128
52   130   130
53   126   129
54   130   127
55   130   130
56   127   129
57   126   129
58   128   130
59   130   127
60   130   129
61   129   128
62   129   128
63   126   130
64   130   130
65   130   128
66   66   67
67   63   64
68   64   67
69   67   64
70   63   67
71   65   63
72   63   63
73   63   66
74   63   65
75   64   65
76   63   67
77   64   65
78   65   63
79   64   64
80   65   67
81   64   65
82   65   66
83   65   66
84   66   63
85   63   65
86   66   65
87   66   64
88   3   1
89   3   5
90   2   5
91   4   1
92   2   1
93   4   2
94   1   2
95   4   5
96   4   5
97   2   5
98   4   2
99   5   1
1000
